29 30
24
3 3 26 1
3 4 19 26
3 5 11 25
3 6 19 0
3 7 16 20
3 8 8 4
3 9 23 6
3 10 19 15
3 11 26 4
3 15 22 15
3 18 4 12
3 20 16 0
4 3 14 27
4 4 0 26
4 5 2 0
4 6 22 0
4 7 4 5
4 9 19 6
4 15 25 15
4 18 7 12
4 20 0 6
5 4 6 0
5 8 11 17
5 17 11 0
